p cnf 200 1110
-101 -67 0
-101 97 0
-101 -17 0
-101 -61 0
-101 79 0
-101 58 0
-101 -52 0
-101 8 0
-101 92 0
-101 91 0
101 67 -97 17 61 -79 -58 52 -8 -92 -91 0
-102 95 0
-102 16 0
-102 -72 0
-102 76 0
-102 28 0
-102 44 0
-102 -99 0
-102 67 0
-102 -62 0
-102 -9 0
102 -95 -16 72 -76 -28 -44 99 -67 62 9 0
-103 12 0
-103 -70 0
-103 -51 0
-103 76 0
-103 -18 0
-103 -43 0
-103 -40 0
-103 -89 0
-103 56 0
-103 -98 0
103 -12 70 51 -76 18 43 40 89 -56 98 0
-104 -72 0
-104 -78 0
-104 49 0
-104 10 0
-104 -29 0
-104 -77 0
-104 76 0
-104 -43 0
-104 89 0
-104 -61 0
104 72 78 -49 -10 29 77 -76 43 -89 61 0
-105 -97 0
-105 -44 0
-105 94 0
-105 -5 0
-105 49 0
-105 66 0
-105 86 0
-105 14 0
-105 -38 0
-105 87 0
105 97 44 -94 5 -49 -66 -86 -14 38 -87 0
-106 -71 0
-106 -9 0
-106 -64 0
-106 -84 0
-106 -75 0
-106 -70 0
-106 -48 0
-106 35 0
-106 29 0
-106 54 0
106 71 9 64 84 75 70 48 -35 -29 -54 0
-107 64 0
-107 93 0
-107 -30 0
-107 -14 0
-107 52 0
-107 -28 0
-107 20 0
-107 85 0
-107 67 0
-107 -37 0
107 -64 -93 30 14 -52 28 -20 -85 -67 37 0
-108 73 0
-108 -25 0
-108 -23 0
-108 -7 0
-108 -48 0
-108 38 0
-108 -16 0
-108 90 0
-108 -35 0
-108 33 0
108 -73 25 23 7 48 -38 16 -90 35 -33 0
-109 -33 0
-109 -25 0
-109 99 0
-109 21 0
-109 29 0
-109 -4 0
-109 -91 0
-109 73 0
-109 51 0
-109 61 0
109 33 25 -99 -21 -29 4 91 -73 -51 -61 0
-110 -45 0
-110 -23 0
-110 57 0
-110 -94 0
-110 90 0
-110 42 0
-110 -100 0
-110 1 0
-110 89 0
-110 -41 0
110 45 23 -57 94 -90 -42 100 -1 -89 41 0
101 102 103 104 105 106 107 108 109 110 0
-111 -43 0
-111 20 0
-111 12 0
-111 -13 0
-111 -51 0
-111 81 0
-111 2 0
-111 18 0
-111 -22 0
-111 -56 0
111 43 -20 -12 13 51 -81 -2 -18 22 56 0
-112 37 0
-112 -43 0
-112 -65 0
-112 44 0
-112 29 0
-112 -12 0
-112 -74 0
-112 -88 0
-112 -2 0
-112 -50 0
112 -37 43 65 -44 -29 12 74 88 2 50 0
-113 -77 0
-113 -21 0
-113 20 0
-113 -28 0
-113 -67 0
-113 -46 0
-113 84 0
-113 -70 0
-113 -90 0
-113 6 0
113 77 21 -20 28 67 46 -84 70 90 -6 0
-114 -5 0
-114 -20 0
-114 98 0
-114 85 0
-114 59 0
-114 79 0
-114 38 0
-114 58 0
-114 95 0
-114 -12 0
114 5 20 -98 -85 -59 -79 -38 -58 -95 12 0
-115 68 0
-115 -97 0
-115 -72 0
-115 -39 0
-115 -100 0
-115 18 0
-115 6 0
-115 76 0
-115 -1 0
-115 64 0
115 -68 97 72 39 100 -18 -6 -76 1 -64 0
-116 23 0
-116 21 0
-116 22 0
-116 11 0
-116 36 0
-116 13 0
-116 74 0
-116 62 0
-116 -20 0
-116 -93 0
116 -23 -21 -22 -11 -36 -13 -74 -62 20 93 0
-117 72 0
-117 61 0
-117 14 0
-117 -11 0
-117 95 0
-117 -52 0
-117 81 0
-117 -58 0
-117 -62 0
-117 69 0
117 -72 -61 -14 11 -95 52 -81 58 62 -69 0
-118 86 0
-118 95 0
-118 -52 0
-118 81 0
-118 -14 0
-118 78 0
-118 -8 0
-118 -47 0
-118 59 0
-118 89 0
118 -86 -95 52 -81 14 -78 8 47 -59 -89 0
-119 -38 0
-119 26 0
-119 -58 0
-119 -99 0
-119 28 0
-119 32 0
-119 48 0
-119 94 0
-119 86 0
-119 -89 0
119 38 -26 58 99 -28 -32 -48 -94 -86 89 0
-120 80 0
-120 -33 0
-120 54 0
-120 -95 0
-120 62 0
-120 46 0
-120 -44 0
-120 81 0
-120 86 0
-120 20 0
120 -80 33 -54 95 -62 -46 44 -81 -86 -20 0
111 112 113 114 115 116 117 118 119 120 0
-121 -40 0
-121 3 0
-121 -79 0
-121 -17 0
-121 -41 0
-121 -54 0
-121 -28 0
-121 -26 0
-121 9 0
-121 -33 0
121 40 -3 79 17 41 54 28 26 -9 33 0
-122 -59 0
-122 23 0
-122 -22 0
-122 -10 0
-122 57 0
-122 51 0
-122 -41 0
-122 43 0
-122 69 0
-122 -38 0
122 59 -23 22 10 -57 -51 41 -43 -69 38 0
-123 30 0
-123 -77 0
-123 37 0
-123 61 0
-123 76 0
-123 65 0
-123 10 0
-123 90 0
-123 -82 0
-123 95 0
123 -30 77 -37 -61 -76 -65 -10 -90 82 -95 0
-124 54 0
-124 -23 0
-124 -43 0
-124 -41 0
-124 29 0
-124 -11 0
-124 86 0
-124 -76 0
-124 -92 0
-124 -84 0
124 -54 23 43 41 -29 11 -86 76 92 84 0
-125 14 0
-125 -95 0
-125 100 0
-125 37 0
-125 3 0
-125 -9 0
-125 -36 0
-125 -97 0
-125 86 0
-125 34 0
125 -14 95 -100 -37 -3 9 36 97 -86 -34 0
-126 -31 0
-126 38 0
-126 -40 0
-126 98 0
-126 -29 0
-126 79 0
-126 -28 0
-126 -77 0
-126 30 0
-126 86 0
126 31 -38 40 -98 29 -79 28 77 -30 -86 0
-127 -68 0
-127 -97 0
-127 31 0
-127 90 0
-127 23 0
-127 30 0
-127 71 0
-127 -13 0
-127 37 0
-127 -80 0
127 68 97 -31 -90 -23 -30 -71 13 -37 80 0
-128 -18 0
-128 78 0
-128 -68 0
-128 -15 0
-128 -52 0
-128 -87 0
-128 -17 0
-128 82 0
-128 -54 0
-128 4 0
128 18 -78 68 15 52 87 17 -82 54 -4 0
-129 -69 0
-129 48 0
-129 -24 0
-129 -82 0
-129 -64 0
-129 34 0
-129 -13 0
-129 49 0
-129 28 0
-129 -70 0
129 69 -48 24 82 64 -34 13 -49 -28 70 0
-130 54 0
-130 -98 0
-130 38 0
-130 -65 0
-130 -83 0
-130 -57 0
-130 40 0
-130 -77 0
-130 -71 0
-130 -87 0
130 -54 98 -38 65 83 57 -40 77 71 87 0
121 122 123 124 125 126 127 128 129 130 0
-131 -28 0
-131 11 0
-131 -92 0
-131 53 0
-131 -27 0
-131 45 0
-131 -36 0
-131 -32 0
-131 21 0
-131 -38 0
131 28 -11 92 -53 27 -45 36 32 -21 38 0
-132 70 0
-132 -62 0
-132 10 0
-132 99 0
-132 -60 0
-132 86 0
-132 4 0
-132 -77 0
-132 26 0
-132 7 0
132 -70 62 -10 -99 60 -86 -4 77 -26 -7 0
-133 32 0
-133 -91 0
-133 -51 0
-133 23 0
-133 -11 0
-133 -84 0
-133 -99 0
-133 -72 0
-133 -53 0
-133 1 0
133 -32 91 51 -23 11 84 99 72 53 -1 0
-134 88 0
-134 69 0
-134 16 0
-134 -28 0
-134 83 0
-134 -41 0
-134 37 0
-134 1 0
-134 -67 0
-134 -91 0
134 -88 -69 -16 28 -83 41 -37 -1 67 91 0
-135 74 0
-135 89 0
-135 -82 0
-135 28 0
-135 -62 0
-135 94 0
-135 -38 0
-135 68 0
-135 32 0
-135 64 0
135 -74 -89 82 -28 62 -94 38 -68 -32 -64 0
-136 29 0
-136 -65 0
-136 -3 0
-136 -2 0
-136 20 0
-136 14 0
-136 -54 0
-136 76 0
-136 -19 0
-136 16 0
136 -29 65 3 2 -20 -14 54 -76 19 -16 0
-137 81 0
-137 -78 0
-137 -83 0
-137 -15 0
-137 22 0
-137 -96 0
-137 34 0
-137 -42 0
-137 -25 0
-137 52 0
137 -81 78 83 15 -22 96 -34 42 25 -52 0
-138 70 0
-138 -18 0
-138 -44 0
-138 -38 0
-138 -74 0
-138 15 0
-138 79 0
-138 26 0
-138 -95 0
-138 94 0
138 -70 18 44 38 74 -15 -79 -26 95 -94 0
-139 72 0
-139 -56 0
-139 91 0
-139 -3 0
-139 -7 0
-139 -15 0
-139 41 0
-139 37 0
-139 55 0
-139 23 0
139 -72 56 -91 3 7 15 -41 -37 -55 -23 0
-140 -66 0
-140 -32 0
-140 75 0
-140 -22 0
-140 69 0
-140 42 0
-140 -21 0
-140 -77 0
-140 76 0
-140 62 0
140 66 32 -75 22 -69 -42 21 77 -76 -62 0
131 132 133 134 135 136 137 138 139 140 0
-141 -70 0
-141 27 0
-141 -89 0
-141 50 0
-141 56 0
-141 -73 0
-141 -46 0
-141 -22 0
-141 29 0
-141 79 0
141 70 -27 89 -50 -56 73 46 22 -29 -79 0
-142 55 0
-142 97 0
-142 -9 0
-142 52 0
-142 26 0
-142 -18 0
-142 4 0
-142 -80 0
-142 -17 0
-142 93 0
142 -55 -97 9 -52 -26 18 -4 80 17 -93 0
-143 61 0
-143 90 0
-143 5 0
-143 75 0
-143 20 0
-143 74 0
-143 30 0
-143 98 0
-143 73 0
-143 4 0
143 -61 -90 -5 -75 -20 -74 -30 -98 -73 -4 0
-144 52 0
-144 -51 0
-144 28 0
-144 71 0
-144 -47 0
-144 18 0
-144 -31 0
-144 -79 0
-144 -55 0
-144 -20 0
144 -52 51 -28 -71 47 -18 31 79 55 20 0
-145 65 0
-145 -27 0
-145 32 0
-145 45 0
-145 -19 0
-145 -54 0
-145 7 0
-145 2 0
-145 17 0
-145 -37 0
145 -65 27 -32 -45 19 54 -7 -2 -17 37 0
-146 -47 0
-146 67 0
-146 56 0
-146 43 0
-146 -60 0
-146 93 0
-146 -74 0
-146 23 0
-146 99 0
-146 61 0
146 47 -67 -56 -43 60 -93 74 -23 -99 -61 0
-147 -60 0
-147 65 0
-147 -59 0
-147 -14 0
-147 -3 0
-147 -22 0
-147 12 0
-147 -31 0
-147 -79 0
-147 55 0
147 60 -65 59 14 3 22 -12 31 79 -55 0
-148 76 0
-148 -10 0
-148 -11 0
-148 53 0
-148 88 0
-148 -94 0
-148 42 0
-148 98 0
-148 95 0
-148 -57 0
148 -76 10 11 -53 -88 94 -42 -98 -95 57 0
-149 -10 0
-149 45 0
-149 40 0
-149 42 0
-149 -20 0
-149 -82 0
-149 62 0
-149 92 0
-149 -74 0
-149 -46 0
149 10 -45 -40 -42 20 82 -62 -92 74 46 0
-150 -62 0
-150 -92 0
-150 48 0
-150 -73 0
-150 29 0
-150 -66 0
-150 15 0
-150 -18 0
-150 -17 0
-150 -72 0
150 62 92 -48 73 -29 66 -15 18 17 72 0
141 142 143 144 145 146 147 148 149 150 0
-151 61 0
-151 -20 0
-151 -13 0
-151 34 0
-151 -29 0
-151 69 0
-151 -17 0
-151 -67 0
-151 66 0
-151 6 0
151 -61 20 13 -34 29 -69 17 67 -66 -6 0
-152 -63 0
-152 50 0
-152 -73 0
-152 -100 0
-152 29 0
-152 37 0
-152 80 0
-152 -76 0
-152 25 0
-152 87 0
152 63 -50 73 100 -29 -37 -80 76 -25 -87 0
-153 -96 0
-153 17 0
-153 -83 0
-153 -66 0
-153 40 0
-153 76 0
-153 -21 0
-153 -97 0
-153 36 0
-153 -18 0
153 96 -17 83 66 -40 -76 21 97 -36 18 0
-154 -93 0
-154 -11 0
-154 -83 0
-154 2 0
-154 -31 0
-154 -66 0
-154 -28 0
-154 84 0
-154 38 0
-154 -36 0
154 93 11 83 -2 31 66 28 -84 -38 36 0
-155 86 0
-155 74 0
-155 -59 0
-155 60 0
-155 -15 0
-155 10 0
-155 -21 0
-155 -34 0
-155 47 0
-155 -93 0
155 -86 -74 59 -60 15 -10 21 34 -47 93 0
-156 -10 0
-156 18 0
-156 81 0
-156 -77 0
-156 -63 0
-156 37 0
-156 -21 0
-156 -55 0
-156 -75 0
-156 20 0
156 10 -18 -81 77 63 -37 21 55 75 -20 0
-157 -64 0
-157 -81 0
-157 85 0
-157 -73 0
-157 -43 0
-157 49 0
-157 -77 0
-157 -61 0
-157 32 0
-157 -16 0
157 64 81 -85 73 43 -49 77 61 -32 16 0
-158 -62 0
-158 -44 0
-158 -6 0
-158 16 0
-158 91 0
-158 59 0
-158 21 0
-158 18 0
-158 -48 0
-158 82 0
158 62 44 6 -16 -91 -59 -21 -18 48 -82 0
-159 91 0
-159 100 0
-159 -13 0
-159 34 0
-159 28 0
-159 -94 0
-159 -7 0
-159 79 0
-159 -38 0
-159 -48 0
159 -91 -100 13 -34 -28 94 7 -79 38 48 0
-160 9 0
-160 -10 0
-160 69 0
-160 -15 0
-160 76 0
-160 -60 0
-160 28 0
-160 -63 0
-160 -50 0
-160 -17 0
160 -9 10 -69 15 -76 60 -28 63 50 17 0
151 152 153 154 155 156 157 158 159 160 0
-161 53 0
-161 -64 0
-161 54 0
-161 24 0
-161 81 0
-161 -73 0
-161 16 0
-161 -38 0
-161 96 0
-161 1 0
161 -53 64 -54 -24 -81 73 -16 38 -96 -1 0
-162 31 0
-162 32 0
-162 -53 0
-162 95 0
-162 -55 0
-162 -46 0
-162 56 0
-162 100 0
-162 72 0
-162 5 0
162 -31 -32 53 -95 55 46 -56 -100 -72 -5 0
-163 34 0
-163 65 0
-163 78 0
-163 66 0
-163 -20 0
-163 88 0
-163 41 0
-163 -50 0
-163 -15 0
-163 44 0
163 -34 -65 -78 -66 20 -88 -41 50 15 -44 0
-164 21 0
-164 59 0
-164 93 0
-164 76 0
-164 78 0
-164 8 0
-164 -23 0
-164 39 0
-164 -77 0
-164 69 0
164 -21 -59 -93 -76 -78 -8 23 -39 77 -69 0
-165 -69 0
-165 14 0
-165 -65 0
-165 -58 0
-165 16 0
-165 -56 0
-165 54 0
-165 -96 0
-165 82 0
-165 68 0
165 69 -14 65 58 -16 56 -54 96 -82 -68 0
-166 -13 0
-166 72 0
-166 -32 0
-166 -7 0
-166 69 0
-166 70 0
-166 -95 0
-166 91 0
-166 -86 0
-166 -50 0
166 13 -72 32 7 -69 -70 95 -91 86 50 0
-167 39 0
-167 -100 0
-167 82 0
-167 -61 0
-167 51 0
-167 50 0
-167 -19 0
-167 17 0
-167 -90 0
-167 52 0
167 -39 100 -82 61 -51 -50 19 -17 90 -52 0
-168 29 0
-168 96 0
-168 2 0
-168 54 0
-168 46 0
-168 -17 0
-168 28 0
-168 63 0
-168 -84 0
-168 -35 0
168 -29 -96 -2 -54 -46 17 -28 -63 84 35 0
-169 18 0
-169 -20 0
-169 -96 0
-169 3 0
-169 -12 0
-169 26 0
-169 51 0
-169 69 0
-169 7 0
-169 -67 0
169 -18 20 96 -3 12 -26 -51 -69 -7 67 0
-170 -55 0
-170 35 0
-170 -24 0
-170 -58 0
-170 -25 0
-170 -100 0
-170 -9 0
-170 98 0
-170 -66 0
-170 82 0
170 55 -35 24 58 25 100 9 -98 66 -82 0
161 162 163 164 165 166 167 168 169 170 0
-171 -28 0
-171 30 0
-171 75 0
-171 76 0
-171 59 0
-171 71 0
-171 92 0
-171 96 0
-171 -65 0
-171 -18 0
171 28 -30 -75 -76 -59 -71 -92 -96 65 18 0
-172 32 0
-172 -87 0
-172 84 0
-172 -72 0
-172 -66 0
-172 -99 0
-172 -18 0
-172 71 0
-172 -96 0
-172 83 0
172 -32 87 -84 72 66 99 18 -71 96 -83 0
-173 -81 0
-173 32 0
-173 99 0
-173 17 0
-173 66 0
-173 -61 0
-173 -79 0
-173 -20 0
-173 -10 0
-173 71 0
173 81 -32 -99 -17 -66 61 79 20 10 -71 0
-174 99 0
-174 -82 0
-174 18 0
-174 80 0
-174 -45 0
-174 3 0
-174 -48 0
-174 -50 0
-174 -83 0
-174 -52 0
174 -99 82 -18 -80 45 -3 48 50 83 52 0
-175 71 0
-175 -78 0
-175 62 0
-175 24 0
-175 75 0
-175 -10 0
-175 11 0
-175 -18 0
-175 -14 0
-175 -95 0
175 -71 78 -62 -24 -75 10 -11 18 14 95 0
-176 -49 0
-176 -75 0
-176 99 0
-176 -54 0
-176 68 0
-176 -88 0
-176 86 0
-176 -38 0
-176 -28 0
-176 30 0
176 49 75 -99 54 -68 88 -86 38 28 -30 0
-177 22 0
-177 -84 0
-177 -6 0
-177 97 0
-177 -37 0
-177 -61 0
-177 33 0
-177 -65 0
-177 87 0
-177 -72 0
177 -22 84 6 -97 37 61 -33 65 -87 72 0
-178 86 0
-178 -87 0
-178 -2 0
-178 5 0
-178 92 0
-178 -100 0
-178 47 0
-178 -82 0
-178 -36 0
-178 40 0
178 -86 87 2 -5 -92 100 -47 82 36 -40 0
-179 11 0
-179 -33 0
-179 21 0
-179 88 0
-179 -22 0
-179 -7 0
-179 -52 0
-179 -36 0
-179 -59 0
-179 30 0
179 -11 33 -21 -88 22 7 52 36 59 -30 0
-180 41 0
-180 61 0
-180 26 0
-180 -71 0
-180 76 0
-180 -39 0
-180 8 0
-180 -16 0
-180 45 0
-180 96 0
180 -41 -61 -26 71 -76 39 -8 16 -45 -96 0
171 172 173 174 175 176 177 178 179 180 0
-181 6 0
-181 -37 0
-181 34 0
-181 93 0
-181 50 0
-181 -76 0
-181 60 0
-181 -4 0
-181 -58 0
-181 68 0
181 -6 37 -34 -93 -50 76 -60 4 58 -68 0
-182 1 0
-182 -99 0
-182 59 0
-182 -14 0
-182 4 0
-182 40 0
-182 53 0
-182 19 0
-182 -44 0
-182 17 0
182 -1 99 -59 14 -4 -40 -53 -19 44 -17 0
-183 80 0
-183 -43 0
-183 48 0
-183 99 0
-183 97 0
-183 -17 0
-183 5 0
-183 -74 0
-183 -50 0
-183 52 0
183 -80 43 -48 -99 -97 17 -5 74 50 -52 0
-184 -16 0
-184 66 0
-184 42 0
-184 -52 0
-184 51 0
-184 41 0
-184 8 0
-184 -49 0
-184 -36 0
-184 93 0
184 16 -66 -42 52 -51 -41 -8 49 36 -93 0
-185 -41 0
-185 -18 0
-185 -61 0
-185 -70 0
-185 -64 0
-185 -99 0
-185 84 0
-185 -94 0
-185 -93 0
-185 88 0
185 41 18 61 70 64 99 -84 94 93 -88 0
-186 -96 0
-186 51 0
-186 -42 0
-186 -35 0
-186 66 0
-186 -20 0
-186 -91 0
-186 -13 0
-186 25 0
-186 -27 0
186 96 -51 42 35 -66 20 91 13 -25 27 0
-187 11 0
-187 40 0
-187 -94 0
-187 16 0
-187 -56 0
-187 -62 0
-187 7 0
-187 -76 0
-187 -31 0
-187 -80 0
187 -11 -40 94 -16 56 62 -7 76 31 80 0
-188 87 0
-188 -83 0
-188 -77 0
-188 35 0
-188 -16 0
-188 54 0
-188 46 0
-188 75 0
-188 -36 0
-188 -93 0
188 -87 83 77 -35 16 -54 -46 -75 36 93 0
-189 -81 0
-189 -70 0
-189 -68 0
-189 -33 0
-189 10 0
-189 53 0
-189 99 0
-189 -22 0
-189 6 0
-189 35 0
189 81 70 68 33 -10 -53 -99 22 -6 -35 0
-190 -68 0
-190 -9 0
-190 26 0
-190 -19 0
-190 82 0
-190 39 0
-190 -11 0
-190 -93 0
-190 -95 0
-190 -40 0
190 68 9 -26 19 -82 -39 11 93 95 40 0
181 182 183 184 185 186 187 188 189 190 0
-191 98 0
-191 -85 0
-191 100 0
-191 -45 0
-191 -24 0
-191 -41 0
-191 89 0
-191 81 0
-191 -95 0
-191 -33 0
191 -98 85 -100 45 24 41 -89 -81 95 33 0
-192 24 0
-192 86 0
-192 88 0
-192 77 0
-192 -22 0
-192 1 0
-192 2 0
-192 -93 0
-192 34 0
-192 -43 0
192 -24 -86 -88 -77 22 -1 -2 93 -34 43 0
-193 -20 0
-193 100 0
-193 -49 0
-193 75 0
-193 -80 0
-193 66 0
-193 -82 0
-193 71 0
-193 74 0
-193 -41 0
193 20 -100 49 -75 80 -66 82 -71 -74 41 0
-194 11 0
-194 56 0
-194 -25 0
-194 -70 0
-194 41 0
-194 -57 0
-194 64 0
-194 65 0
-194 -99 0
-194 75 0
194 -11 -56 25 70 -41 57 -64 -65 99 -75 0
-195 -54 0
-195 60 0
-195 14 0
-195 4 0
-195 -10 0
-195 -72 0
-195 -46 0
-195 55 0
-195 -91 0
-195 -44 0
195 54 -60 -14 -4 10 72 46 -55 91 44 0
-196 51 0
-196 73 0
-196 60 0
-196 -27 0
-196 100 0
-196 50 0
-196 -77 0
-196 9 0
-196 96 0
-196 -40 0
196 -51 -73 -60 27 -100 -50 77 -9 -96 40 0
-197 32 0
-197 -26 0
-197 -39 0
-197 37 0
-197 44 0
-197 -38 0
-197 -97 0
-197 -17 0
-197 -81 0
-197 -82 0
197 -32 26 39 -37 -44 38 97 17 81 82 0
-198 -55 0
-198 -10 0
-198 -89 0
-198 77 0
-198 16 0
-198 -6 0
-198 81 0
-198 -72 0
-198 -64 0
-198 48 0
198 55 10 89 -77 -16 6 -81 72 64 -48 0
-199 -1 0
-199 36 0
-199 -75 0
-199 -71 0
-199 -6 0
-199 52 0
-199 99 0
-199 -13 0
-199 -31 0
-199 -67 0
199 1 -36 75 71 6 -52 -99 13 31 67 0
-200 77 0
-200 16 0
-200 7 0
-200 -10 0
-200 -43 0
-200 31 0
-200 -17 0
-200 -71 0
-200 -13 0
-200 -81 0
200 -77 -16 -7 10 43 -31 17 71 13 81 0
191 192 193 194 195 196 197 198 199 200 0
